row=8;
column=8;
Board=[|4,0,6,4,7,4,0,0|0,7,0,0,3,0,6,8|0,0,2,8,0,2,1,0|2,4,0,7,8,0,0,0|4,0,7,0,2,8,0,0|0,7,4,0,0,2,6,8|4,8,0,0,1,0,0,8|0,0,8,8,8,0,8,8|];
right = [3,3,4,4,4,3,4,3];
bottom = [4,4,2,4,2,4,4,4];
